c CNF file corresponding to a (partial) station packing problem.
p cnf 2581 229
1 2 3 4 5 6 7 8 9 10 11 12 13 14 0
-1 -2 0
-1 -3 0
-1 -4 0
-1 -5 0
-1 -6 0
-1 -7 0
-1 -8 0
-1 -9 0
-1 -10 0
-1 -11 0
-1 -12 0
-1 -13 0
-1 -14 0
-2 -3 0
-2 -4 0
-2 -5 0
-2 -6 0
-2 -7 0
-2 -8 0
-2 -9 0
-2 -10 0
-2 -11 0
-2 -12 0
-2 -13 0
-2 -14 0
-3 -4 0
-3 -5 0
-3 -6 0
-3 -7 0
-3 -8 0
-3 -9 0
-3 -10 0
-3 -11 0
-3 -12 0
-3 -13 0
-3 -14 0
-4 -5 0
-4 -6 0
-4 -7 0
-4 -8 0
-4 -9 0
-4 -10 0
-4 -11 0
-4 -12 0
-4 -13 0
-4 -14 0
-5 -6 0
-5 -7 0
-5 -8 0
-5 -9 0
-5 -10 0
-5 -11 0
-5 -12 0
-5 -13 0
-5 -14 0
-6 -7 0
-6 -8 0
-6 -9 0
-6 -10 0
-6 -11 0
-6 -12 0
-6 -13 0
-6 -14 0
-7 -8 0
-7 -9 0
-7 -10 0
-7 -11 0
-7 -12 0
-7 -13 0
-7 -14 0
-8 -9 0
-8 -10 0
-8 -11 0
-8 -12 0
-8 -13 0
-8 -14 0
-9 -10 0
-9 -11 0
-9 -12 0
-9 -13 0
-9 -14 0
-10 -11 0
-10 -12 0
-10 -13 0
-10 -14 0
-11 -12 0
-11 -13 0
-11 -14 0
-12 -13 0
-12 -14 0
-13 -14 0
2565 2566 2567 2568 2569 2570 2571 2572 2573 2574 2575 2576 2577 2578 2579 2580 2581 0
-2565 -2566 0
-2565 -2567 0
-2565 -2568 0
-2565 -2569 0
-2565 -2570 0
-2565 -2571 0
-2565 -2572 0
-2565 -2573 0
-2565 -2574 0
-2565 -2575 0
-2565 -2576 0
-2565 -2577 0
-2565 -2578 0
-2565 -2579 0
-2565 -2580 0
-2565 -2581 0
-2566 -2567 0
-2566 -2568 0
-2566 -2569 0
-2566 -2570 0
-2566 -2571 0
-2566 -2572 0
-2566 -2573 0
-2566 -2574 0
-2566 -2575 0
-2566 -2576 0
-2566 -2577 0
-2566 -2578 0
-2566 -2579 0
-2566 -2580 0
-2566 -2581 0
-2567 -2568 0
-2567 -2569 0
-2567 -2570 0
-2567 -2571 0
-2567 -2572 0
-2567 -2573 0
-2567 -2574 0
-2567 -2575 0
-2567 -2576 0
-2567 -2577 0
-2567 -2578 0
-2567 -2579 0
-2567 -2580 0
-2567 -2581 0
-2568 -2569 0
-2568 -2570 0
-2568 -2571 0
-2568 -2572 0
-2568 -2573 0
-2568 -2574 0
-2568 -2575 0
-2568 -2576 0
-2568 -2577 0
-2568 -2578 0
-2568 -2579 0
-2568 -2580 0
-2568 -2581 0
-2569 -2570 0
-2569 -2571 0
-2569 -2572 0
-2569 -2573 0
-2569 -2574 0
-2569 -2575 0
-2569 -2576 0
-2569 -2577 0
-2569 -2578 0
-2569 -2579 0
-2569 -2580 0
-2569 -2581 0
-2570 -2571 0
-2570 -2572 0
-2570 -2573 0
-2570 -2574 0
-2570 -2575 0
-2570 -2576 0
-2570 -2577 0
-2570 -2578 0
-2570 -2579 0
-2570 -2580 0
-2570 -2581 0
-2571 -2572 0
-2571 -2573 0
-2571 -2574 0
-2571 -2575 0
-2571 -2576 0
-2571 -2577 0
-2571 -2578 0
-2571 -2579 0
-2571 -2580 0
-2571 -2581 0
-2572 -2573 0
-2572 -2574 0
-2572 -2575 0
-2572 -2576 0
-2572 -2577 0
-2572 -2578 0
-2572 -2579 0
-2572 -2580 0
-2572 -2581 0
-2573 -2574 0
-2573 -2575 0
-2573 -2576 0
-2573 -2577 0
-2573 -2578 0
-2573 -2579 0
-2573 -2580 0
-2573 -2581 0
-2574 -2575 0
-2574 -2576 0
-2574 -2577 0
-2574 -2578 0
-2574 -2579 0
-2574 -2580 0
-2574 -2581 0
-2575 -2576 0
-2575 -2577 0
-2575 -2578 0
-2575 -2579 0
-2575 -2580 0
-2575 -2581 0
-2576 -2577 0
-2576 -2578 0
-2576 -2579 0
-2576 -2580 0
-2576 -2581 0
-2577 -2578 0
-2577 -2579 0
-2577 -2580 0
-2577 -2581 0
-2578 -2579 0
-2578 -2580 0
-2578 -2581 0
-2579 -2580 0
-2579 -2581 0
-2580 -2581 0
